npieces = 5;	
nplayers = 10;	
duration = [10, 4, 4, 2, 8];
rehearsal = [[1, 1, 1, 0, 1], [1, 1, 0, 0, 0], [0, 1, 0, 0, 0], [0, 0, 0, 1, 0], [1, 1, 1, 0, 1], [0, 0, 1, 1, 1], [0, 1, 0, 0, 1], [1, 0, 0, 0, 0], [0, 0, 0, 1, 1], [1, 0, 1, 0, 0]];